c
p cnf 26 56
-13 -10 0
-3 10 0
-19 22 0
-2 24 0
12 23 0
5 25 0
23 -6 0
-18 4 0
6 16 0
2 -5 0
5 -13 0
24 5 0
-21 2 0
22 -13 0
15 -3 0
14 8 0
-21 11 0
19 20 0
3 -24 0
6 -1 0
-2 18 0
1 -22 0
-13 -15 0
-4 12 0
-1 -6 0
4 5 0
-24 8 0
-23 11 0
23 -13 0
-25 9 0
-20 -22 0
1 -14 0
15 -23 0
-10 -4 0
-16 11 0
1 -11 0
-21 -16 0
-21 -13 0
-5 -24 0
25 -1 0
16 17 0
3 25 0
20 -7 0
19 16 0
14 18 0
-11 8 0
25 -2 0
-14 -2 0
3 13 0
3 -15 0
-11 -24 0
17 -12 0
10 21 0
14 25 0
21 -18 0
8 15 0
